c preprocessed version of tsp225.tsp, 214 vertices, 600 edges
p td 214 600
0 1
0 209
0 8
0 210
0 11
7 0
2 1
209 1
7 1
6 1
3 2
4 2
2 5
2 209
6 2
3 4
3 209
3 30
3 13
3 12
4 5
4 30
29 4
6 5
29 5
7 6
6 207
7 8
7 207
8 9
210 8
8 54
8 53
8 52
207 8
10 9
210 9
9 52
9 51
9 50
11 10
49 10
10 210
10 50
12 11
11 209
47 11
49 11
11 210
13 12
12 209
12 47
14 13
15 13
13 46
13 30
13 47
31 13
15 14
26 14
14 27
31 14
28 14
16 15
24 15
22 15
15 26
15 46
25 15
17 16
36 16
37 16
16 24
16 46
16 45
18 17
23 17
17 24
17 36
19 18
18 21
18 23
18 36
35 18
208 18
19 20
19 21
208 19
34 19
21 20
34 20
33 20
21 22
21 23
33 21
23 22
24 22
25 22
33 22
23 24
25 26
25 33
25 32
26 27
32 26
28 27
32 27
28 29
31 28
29 30
29 31
31 30
32 33
34 35
208 34
35 36
35 203
35 208
36 37
36 38
36 194
36 203
38 37
42 37
39 37
37 45
37 44
38 39
38 40
38 194
40 39
42 39
41 39
40 41
40 194
40 192
40 193
42 41
192 41
43 42
42 44
42 186
42 192
42 183
42 182
43 44
43 191
43 190
43 186
45 44
69 44
71 44
44 191
46 45
45 48
45 69
46 47
46 48
48 47
47 49
48 49
48 50
48 66
48 68
48 69
49 50
51 50
63 50
64 50
50 66
50 65
52 51
51 59
51 62
51 63
52 53
52 57
52 58
52 59
53 54
53 57
54 55
54 56
54 57
207 54
56 55
120 55
207 55
56 57
118 56
56 120
56 119
58 57
118 57
59 58
60 58
117 58
58 118
59 60
59 62
59 61
61 60
115 60
60 117
62 61
111 61
112 61
61 115
61 114
61 113
62 63
62 64
62 111
62 110
63 64
64 65
64 110
64 104
64 109
65 66
65 67
65 109
65 108
66 67
66 68
67 68
67 70
67 108
68 69
68 70
70 69
69 71
70 71
70 108
70 72
71 72
71 73
71 191
73 72
107 72
72 108
72 106
74 73
188 73
73 107
73 191
73 190
73 187
75 74
189 74
74 107
74 188
74 86
76 75
84 75
75 107
75 106
75 86
75 85
77 76
80 76
76 106
76 84
78 77
77 103
77 104
77 105
77 106
77 80
79 78
78 103
78 102
78 101
78 100
78 80
78 99
79 80
79 99
79 98
79 97
81 80
80 84
80 97
82 81
83 81
81 84
81 97
81 95
96 81
82 83
82 95
82 94
83 84
83 85
83 94
84 85
85 86
85 94
87 86
189 86
86 94
88 87
92 87
87 188
87 189
87 94
87 93
89 88
88 188
88 187
88 92
90 89
184 89
89 187
89 185
89 92
91 90
90 184
90 183
90 92
181 90
180 90
91 92
91 93
91 95
180 91
92 93
93 94
93 95
95 94
96 95
96 97
96 153
154 96
98 97
153 97
99 98
98 152
153 98
100 99
99 167
99 168
99 152
99 151
99 150
101 100
100 166
100 167
102 101
112 101
113 101
101 164
101 166
103 102
110 102
102 112
102 111
103 104
103 110
105 104
109 104
110 104
106 105
108 105
105 109
107 106
106 108
108 109
110 111
111 112
112 113
114 113
113 162
113 163
113 164
115 114
127 114
114 128
114 129
114 162
115 116
115 117
115 127
117 116
119 116
116 124
116 125
116 127
117 118
117 119
118 119
119 120
119 121
119 122
119 125
121 120
122 121
123 121
122 123
122 125
122 124
124 123
126 123
139 123
124 125
124 126
124 127
127 126
128 126
126 138
126 139
126 137
127 128
129 128
128 137
130 129
161 129
162 129
129 137
131 130
130 137
130 161
130 169
130 160
132 131
136 131
131 137
131 169
133 132
135 132
132 136
132 169
132 170
134 133
133 135
133 170
133 172
133 142
134 135
134 142
141 134
135 136
141 135
136 137
140 136
141 136
137 138
140 137
138 139
140 141
143 142
179 142
172 142
173 142
144 143
143 173
143 179
145 144
178 144
144 179
144 173
146 145
174 145
145 178
145 173
146 147
146 174
146 178
148 147
174 147
157 147
175 147
149 148
148 156
148 157
149 150
149 156
149 155
151 150
150 156
150 168
150 155
151 152
151 155
154 151
153 152
154 152
153 154
154 155
157 156
158 156
168 156
157 158
157 175
159 158
177 158
176 158
158 167
158 168
158 175
160 159
171 159
170 159
159 172
159 173
159 177
159 167
161 160
165 160
160 169
160 171
160 167
161 162
161 163
161 164
161 165
162 163
163 164
165 164
166 164
165 166
165 167
167 166
168 167
169 170
169 171
171 170
170 172
172 173
174 173
173 177
173 176
174 175
174 176
176 175
177 176
178 179
181 180
205 180
181 182
181 183
205 181
206 181
182 183
182 192
206 182
184 183
183 186
183 185
184 185
185 186
185 187
186 187
186 190
188 187
187 190
189 188
191 190
193 192
206 192
193 194
193 195
193 196
193 197
206 193
195 194
194 203
202 194
201 194
196 195
200 195
201 195
197 196
196 200
196 198
199 196
197 198
206 197
204 197
199 198
204 198
199 200
199 201
202 199
201 200
202 201
202 203
205 204
206 204
205 206
211 137
211 138
211 212
211 140
211 213
212 213
212 138
212 139
213 140
213 141
